Route #1: 13 82 78 76 27 175 180 97 136 182 115 59 173 50 201 166 46 149 47
Route #2: 168 117 53 144 48 62 91 147 2 156 177 94 212 22 81 56 195 159 125 73 38 39
Route #3: 7 99 83 210 92 64 200 135 181 93 120 33 10 206 191 49 80 137 96
Route #4: 167 40 45 157 104 204 141 130 188 88 74 29 43 192 171 178 119 194 19 15 87 133
Route #5: 124 186 187 163 17 63 68 11 132 129 5 41 139 77 98 34 160 162 189
Route #6: 155 21 197 79 42 108 176 110 18 142 60 199 3 196 30 131 179 36
Route #7: 107 32 52 85 44 145 150 16 114 122 113 95 184 54 86 90 146 134 9 1 35 207
Route #8: 55 123 203 126 198 111 57 128 165 100 28 75 112 154 67 103 158 58
Route #9: 169 6 116 31 12 121 202 211 174 105 70 140 143 72 101 4 71
Route #10: 23 127 25 170 8 61 89 69 14 66 37 164 51 183 109 205 20 161 190 153
Route #11: 172 193 106 65 138 152 209 26 213 148 102 185 118 208 24 84 151
Cost 10874
